
******************************************************************************
This program contains Ipopt, a library for large-scale nonlinear optimization.
 Ipopt is released as open source code under the Eclipse Public License (EPL).
         For more information visit http://projects.coin-or.org/Ipopt

This version of Ipopt was compiled from source code available at
    https://github.com/IDAES/Ipopt as part of the Institute for the Design of
    Advanced Energy Systems Process Systems Engineering Framework (IDAES PSE
    Framework) Copyright (c) 2018-2019. See https://github.com/IDAES/idaes-pse.

This version of Ipopt was compiled using HSL, a collection of Fortran codes
    for large-scale scientific computation.  All technical papers, sales and
    publicity material resulting from use of the HSL codes within IPOPT must
    contain the following acknowledgement:
        HSL, a collection of Fortran codes for large-scale scientific
        computation. See http://www.hsl.rl.ac.uk.
******************************************************************************

This is Ipopt version 3.13.2, running with linear solver ma27.

Number of nonzeros in equality constraint Jacobian...:      958
Number of nonzeros in inequality constraint Jacobian.:        0
Number of nonzeros in Lagrangian Hessian.............:      832

Total number of variables............................:      416
                     variables with only lower bounds:      128
                variables with lower and upper bounds:      224
                     variables with only upper bounds:        0
Total number of equality constraints.................:      415
Total number of inequality constraints...............:        0
        inequality constraints with only lower bounds:        0
   inequality constraints with lower and upper bounds:        0
        inequality constraints with only upper bounds:        0

iter    objective    inf_pr   inf_du lg(mu)  ||d||  lg(rg) alpha_du alpha_pr  ls
   0  0.0000000e+00 1.41e+00 1.63e-13  -1.0 0.00e+00    -  0.00e+00 0.00e+00   0
   1  4.0793520e+01 1.32e+00 2.17e+06  -1.0 1.15e+07    -  2.66e-02 3.44e-02h  2
   2  5.0885618e+01 1.32e+00 2.19e+06  -1.0 2.36e+07    -  2.65e-02 3.19e-03h  5
   3  6.1283706e+01 1.31e+00 2.20e+06  -1.0 2.72e+07    -  2.42e-02 2.65e-03h  5
   4  6.3874728e+01 1.31e+00 2.20e+06  -1.0 3.03e+07    -  2.30e-02 5.67e-04h  7
   5  6.8836766e+01 1.31e+00 2.20e+06  -1.0 3.36e+07    -  2.22e-02 9.50e-04h  6
   6  3.8152431e+02 1.27e+00 5.04e+06  -1.0 3.38e+07    -  2.40e-02 3.02e-02h  1
   7  3.8753131e+02 1.27e+00 5.03e+06  -1.0 4.37e+07    -  2.92e-02 2.65e-04h  1
   8  3.8748562e+02 1.27e+00 5.03e+06  -1.0 5.67e+07    -  2.92e-02 4.01e-05h  1
   9  3.8745832e+02 1.27e+00 2.31e+07  -1.0 6.11e+07    -  2.75e-02 1.01e-05f  8
iter    objective    inf_pr   inf_du lg(mu)  ||d||  lg(rg) alpha_du alpha_pr  ls
  10  3.8745689e+02 1.27e+00 1.44e+09  -1.0 1.16e+08    -  2.02e-02 1.28e-06h  9
  11  3.8744577e+02 1.27e+00 2.26e+09  -1.0 6.11e+07    -  6.05e-03 2.30e-06f 13
  12r 3.8744577e+02 1.27e+00 1.00e+03   0.1 0.00e+00    -  0.00e+00 3.42e-07R 12
  13r 3.8744589e+02 1.25e+00 9.97e+02   0.1 8.23e+02    -  3.93e-03 1.83e-03f  1
  14r 3.8744634e+02 1.44e+00 9.90e+02   0.1 7.27e+02    -  1.16e-02 6.89e-03f  1
  15r 3.8744624e+02 1.43e+00 9.80e+02   0.1 2.03e+03    -  6.11e-02 1.04e-02f  1
  16r 3.8744366e+02 1.38e+00 9.46e+02   0.1 1.55e+03    -  1.48e-02 3.42e-02f  1
  17r 3.8743961e+02 1.29e+00 9.90e+02   0.1 2.20e+03    -  3.29e-02 6.83e-02f  1
  18r 3.8743972e+02 1.27e+00 9.86e+02   0.1 8.03e+02    -  4.17e-03 8.75e-03f  1
  19r 3.8743972e+02 1.26e+00 9.68e+02   0.1 2.12e+03    -  1.88e-02 1.36e-02f  1
iter    objective    inf_pr   inf_du lg(mu)  ||d||  lg(rg) alpha_du alpha_pr  ls
  20r 3.8743973e+02 1.25e+00 9.65e+02   0.1 1.81e+03    -  2.81e-03 5.69e-03f  1
  21r 3.8743975e+02 1.23e+00 9.58e+02   0.1 1.72e+03    -  5.98e-03 1.39e-02f  1
  22r 3.8743977e+02 1.23e+00 9.38e+02   0.1 1.39e+03    -  2.31e-02 5.17e-03f  1
  23r 3.8744009e+02 1.21e+00 9.30e+02   0.1 6.22e+02    -  8.53e-03 1.31e-02f  1
  24r 3.8744021e+02 1.19e+00 1.19e+03   0.1 8.69e+01    -  1.23e-01 1.27e-02f  1
  25r 3.8744080e+02 1.15e+00 1.09e+03   0.1 8.45e+01    -  7.87e-03 3.76e-02f  1
  26r 3.8744085e+02 1.14e+00 1.07e+03   0.1 3.62e+02    -  9.73e-02 7.02e-03f  1
  27r 3.8744085e+02 1.14e+00 9.99e+02   0.1 0.00e+00    -  0.00e+00 1.02e-07R  2
  28r 3.8744078e+02 7.75e-01 9.97e+02   0.1 1.13e+03    -  5.65e-03 1.05e-03f  1
  29  3.7928669e+02 2.86e+00 7.02e+03  -1.0 1.00e+08    -  2.40e-02 7.51e-04f  1
iter    objective    inf_pr   inf_du lg(mu)  ||d||  lg(rg) alpha_du alpha_pr  ls
  30  3.7110318e+02 2.86e+00 2.71e+04  -1.0 9.91e+07    -  2.58e-02 8.09e-04f  4
  31  3.6065925e+02 2.85e+00 6.21e+04  -1.0 8.49e+07    -  2.45e-02 1.00e-03f  4
  32  3.5615013e+02 2.85e+00 1.82e+05  -1.0 8.45e+07    -  2.44e-02 4.55e-04f  5
  33  3.5396680e+02 2.85e+00 4.90e+05  -1.0 8.44e+07    -  2.44e-02 2.22e-04f  6
  34  3.4577835e+02 2.85e+00 1.27e+06  -1.0 7.16e+07    -  2.53e-02 8.67e-04f  4
  35  3.1974213e+02 3.52e+01 1.32e+08  -1.0 7.51e+07    -  2.58e-02 6.32e-03f  1
  36  3.1436778e+02 3.53e+01 1.32e+08  -1.0 9.23e+07    -  1.81e-02 4.43e-03F  1
  37  3.0426130e+02 3.51e+01 1.32e+08  -1.0 1.09e+08    -  1.82e-02 4.43e-03f  2
  38  3.0150643e+02 3.51e+01 1.32e+08  -1.0 1.04e+08    -  1.83e-02 1.82e-03f  3
  39  3.1727292e+02 3.50e+01 1.32e+08  -1.0 4.68e+07    -  1.83e-02 2.25e-03h  4
iter    objective    inf_pr   inf_du lg(mu)  ||d||  lg(rg) alpha_du alpha_pr  ls
  40  3.1710832e+02 3.50e+01 3.04e+08  -1.0 6.85e+08    -  5.64e-03 5.39e-06f  5
  41r 3.1710832e+02 3.50e+01 1.00e+03   1.5 0.00e+00    -  0.00e+00 2.78e-07R 16
  42r 3.1710710e+02 1.58e+01 9.96e+02   1.5 1.27e+04    -  5.95e-03 2.74e-03f  1
  43r 3.1710710e+02 1.58e+01 9.99e+02   1.2 0.00e+00    -  0.00e+00 5.56e-08R  2
  44r 3.1710656e+02 4.07e+00 9.96e+02   1.2 6.31e+03    -  2.95e-03 2.48e-03f  1
  45  3.1252297e+02 4.67e+00 1.54e+04  -1.0 1.20e+08    -  2.18e-02 8.05e-04f  1
  46  3.4361570e+02 4.66e+00 7.99e+04  -1.0 4.84e+07    -  2.16e-02 3.18e-03h  3
  47  3.4544063e+02 4.66e+00 8.08e+04  -1.0 6.88e+07    -  1.59e-02 1.78e-04h  6
  48  3.4586961e+02 4.66e+00 1.70e+05  -1.0 7.12e+07    -  2.25e-02 4.16e-05h  8
  49r 3.4586961e+02 4.66e+00 1.00e+03   0.7 0.00e+00    -  0.00e+00 3.19e-07R 15
iter    objective    inf_pr   inf_du lg(mu)  ||d||  lg(rg) alpha_du alpha_pr  ls
  50r 3.4586961e+02 4.05e+00 9.98e+02   0.7 4.06e+03    -  1.26e-02 1.17e-03f  1
  51r 3.4586961e+02 4.05e+00 9.99e+02   0.6 0.00e+00    -  0.00e+00 4.25e-08R  2
  52r 3.4586941e+02 4.03e+00 9.96e+02   0.6 2.47e+03    -  1.53e-02 2.97e-03f  1
  53r 3.4586897e+02 3.52e+00 9.89e+02   0.6 2.50e+03    -  1.01e-03 8.25e-03f  1
  54  3.4591840e+02 3.52e+00 1.65e+05  -1.0 2.50e+08    -  1.85e-02 1.51e-05h  1
  55  3.3783837e+02 1.66e+01 6.63e+06  -1.0 6.71e+08    -  7.01e-03 5.66e-04f  2
  56  3.4374163e+02 1.66e+01 6.63e+06  -1.0 7.35e+07    -  1.51e-02 6.10e-04h  4
  57  3.4490068e+02 1.66e+01 6.63e+06  -1.0 8.24e+07    -  1.33e-02 1.18e-04h  6
  58  3.4517487e+02 1.66e+01 6.63e+06  -1.0 8.43e+07    -  1.68e-02 2.78e-05h  8
  59r 3.4517487e+02 1.66e+01 1.00e+03   1.2 0.00e+00    -  0.00e+00 4.29e-07R 14
iter    objective    inf_pr   inf_du lg(mu)  ||d||  lg(rg) alpha_du alpha_pr  ls
  60r 3.4517425e+02 3.40e+00 9.95e+02   1.2 4.42e+03    -  6.69e-03 3.02e-03f  1
  61r 3.4517425e+02 3.40e+00 9.99e+02   0.5 0.00e+00    -  0.00e+00 8.72e-08R  2
  62r 3.4517414e+02 3.21e+00 9.98e+02   0.5 2.33e+03    -  2.89e-03 1.39e-03f  1
  63r 3.4517403e+02 2.69e+00 9.94e+02   0.5 2.11e+03    -  5.30e-03 3.53e-03f  1
  64  3.4948135e+02 2.69e+00 1.08e+04  -1.0 7.43e+07    -  1.51e-02 3.81e-04h  1
  65  3.5478817e+02 2.69e+00 3.99e+04  -1.0 8.12e+07    -  1.38e-02 4.51e-04h  4
  66  3.5587233e+02 2.69e+00 2.37e+05  -1.0 8.82e+07    -  1.70e-02 9.03e-05h  6
  67  3.5638904e+02 2.69e+00 1.95e+06  -1.0 8.97e+07    -  2.12e-02 4.27e-05h  7
  68  3.5663866e+02 2.69e+00 1.84e+07  -1.0 9.04e+07    -  2.25e-02 2.06e-05h  8
  69r 3.5663866e+02 2.69e+00 1.00e+03   0.4 0.00e+00    -  0.00e+00 2.88e-07R 14
iter    objective    inf_pr   inf_du lg(mu)  ||d||  lg(rg) alpha_du alpha_pr  ls
  70r 3.5663809e+02 1.26e+00 9.91e+02   0.4 4.13e+03    -  8.78e-03 9.81e-03f  1
  71r 3.5663809e+02 1.26e+00 9.99e+02   0.1 0.00e+00    -  0.00e+00 5.47e-08R  2
  72r 3.5663790e+02 7.43e-01 9.93e+02   0.1 2.78e+03    -  1.75e-02 5.20e-03f  1
  73  3.6171122e+02 6.72e+00 1.65e+04  -1.0 8.95e+07    -  3.99e-04 3.99e-04s 11
  74  3.8671287e+02 6.71e+00 3.24e+04  -1.0 9.72e+07    -  1.65e-03 1.65e-03s 11
  75  4.3187973e+02 1.18e+01 1.92e+05  -1.0 1.34e+08    -  2.31e-03 2.31e-03s 11
  76r 4.3187973e+02 1.18e+01 1.00e+03   1.1 0.00e+00    -  0.00e+00 0.00e+00R  1
  77r 4.3187964e+02 2.73e+00 9.88e+02   1.1 8.26e+03    -  1.45e-02 1.42e-03f  1
  78r 4.3187943e+02 5.84e-01 9.69e+02   1.1 5.65e+02    -  1.70e-01 1.21e-02f  1
  79r 4.3187943e+02 5.84e-01 9.99e+02  -0.2 0.00e+00    -  0.00e+00 4.40e-07R  6
iter    objective    inf_pr   inf_du lg(mu)  ||d||  lg(rg) alpha_du alpha_pr  ls
  80r 4.3187917e+02 5.84e-01 9.97e+02  -0.2 5.21e+03    -  1.26e-02 2.50e-03f  1
  81r 4.3187873e+02 5.83e-01 9.90e+02  -0.2 1.26e+03    -  1.64e-02 6.14e-03f  1
  82r 4.3187788e+02 5.82e-01 9.75e+02  -0.2 1.19e+03    -  5.54e-03 1.53e-02f  1
  83r 4.3187760e+02 5.82e-01 9.70e+02  -0.2 1.17e+03    -  8.24e-02 5.72e-03f  1
  84r 4.3187359e+02 5.80e-01 8.89e+02  -0.2 1.17e+03    -  5.73e-02 8.34e-02f  1
  85r 4.3187289e+02 5.76e-01 8.78e+02  -0.2 1.08e+03    -  1.08e-03 1.30e-02f  1
  86r 4.3187226e+02 5.73e-01 8.68e+02  -0.2 1.06e+03    -  7.79e-02 9.95e-03f  1
  87r 4.3187226e+02 4.91e-01 7.33e+02  -0.2 6.86e-01   2.0 1.82e-01 1.69e-01f  1
  88r 4.3187226e+02 4.91e-01 9.99e+02  -0.3 0.00e+00    -  0.00e+00 2.99e-07R  4
  89r 4.3187167e+02 4.91e-01 9.91e+02  -0.3 1.30e+03    -  2.62e-02 7.76e-03f  1
iter    objective    inf_pr   inf_du lg(mu)  ||d||  lg(rg) alpha_du alpha_pr  ls
  90r 4.3187167e+02 4.87e-01 9.36e+02  -0.3 1.11e+00   2.0 2.57e-01 7.27e-02f  1
  91r 4.3187167e+02 5.13e-01 9.36e+02  -0.3 4.35e+02   1.5 8.24e-04 7.24e-04f  1
  92r 4.3187167e+02 5.14e-01 9.46e+02  -0.3 8.18e-01   1.9 5.75e-01 1.11e-02f  1
  93r 4.3187167e+02 5.19e-01 8.84e+02  -0.3 5.53e+00   1.5 1.31e-02 5.58e-02f  1
  94r 4.3187167e+02 5.70e-01 8.77e+02  -0.3 6.11e+00   1.9 1.59e-01 1.78e-02f  1
  95r 4.3187167e+02 6.54e-01 8.74e+02  -0.3 8.67e+01   1.4 1.43e-03 2.34e-03f  1
  96r 4.3187167e+02 6.52e-01 8.18e+02  -0.3 1.77e+00   0.9 1.54e-01 5.73e-02f  1
  97r 4.3187167e+02 6.42e-01 7.02e+02  -0.3 3.25e+00   0.5 5.39e-02 1.47e-01f  1
  98r 4.3187167e+02 6.01e-01 7.65e+02  -0.3 1.09e-01   2.7 1.28e-01 6.03e-01f  1
  99r 4.3187167e+02 5.68e-01 2.84e+02  -0.3 1.32e-01   3.1 9.90e-01 6.79e-01f  1
iter    objective    inf_pr   inf_du lg(mu)  ||d||  lg(rg) alpha_du alpha_pr  ls
 100r 4.3187167e+02 4.98e-01 2.80e+02  -0.3 2.84e+00   2.6 2.74e-02 3.36e-02f  1
 101r 4.3187167e+02 5.12e-01 3.32e+02  -0.3 2.11e-01   3.1 5.60e-01 2.23e-01f  1
 102r 4.3187167e+02 6.14e-01 6.29e+02  -0.3 2.30e+00   2.6 3.91e-01 8.99e-02f  1
 103r 4.3186893e+02 6.12e-01 5.15e+02  -0.3 1.35e+03    -  7.92e-02 2.99e-02f  1
 104r 4.3186403e+02 6.06e-01 4.97e+02  -0.3 1.28e+03    -  6.09e-02 7.19e-02f  1
 105r 4.3185444e+02 6.04e-01 1.45e+03  -0.3 1.23e+03    -  8.28e-01 1.28e-01f  1
 106r 4.3179781e+02 5.94e-01 2.60e+02  -0.3 1.08e+03    -  9.90e-01 8.27e-01f  1
 107r 4.3178359e+02 5.91e-01 1.28e+00  -0.3 1.83e+02    -  1.00e+00 1.00e+00f  1
 108r 4.3178298e+02 5.92e-01 1.01e+02  -1.7 4.75e+01    -  1.00e+00 7.65e-01f  1
 109r 4.3142842e+02 5.92e-01 3.87e+00  -1.7 5.17e+03    -  9.89e-01 1.00e+00f  1
iter    objective    inf_pr   inf_du lg(mu)  ||d||  lg(rg) alpha_du alpha_pr  ls
 110r 4.3142957e+02 5.92e-01 1.44e-04  -1.7 1.26e+02    -  1.00e+00 1.00e+00h  1
 111r 4.3143030e+02 5.93e-01 1.67e+01  -3.8 1.01e+02    -  9.95e-01 8.73e-01f  1
 112r 4.3077918e+02 5.92e-01 3.70e+02  -3.8 4.16e+04    -  1.00e+00 1.39e-01f  1
 113r 4.2986495e+02 5.93e-01 6.87e+02  -3.8 3.74e+04    -  1.00e+00 2.27e-01f  1
 114r 4.2810436e+02 5.92e-01 2.82e+02  -3.8 3.06e+04    -  1.00e+00 5.71e-01f  1
 115r 4.2702220e+02 5.92e-01 5.62e+01  -3.8 1.50e+04    -  1.00e+00 8.23e-01f  1
 116r 4.2702162e+02 5.92e-01 5.19e+01  -3.8 2.45e+03    -  1.25e-01 2.86e-03h  1
 117r 4.2701113e+02 5.92e-01 9.60e+01  -3.8 1.79e+03    -  1.00e+00 5.87e-02f  1
 118r 4.2688082e+02 5.92e-01 1.15e+01  -3.8 1.69e+03    -  1.00e+00 9.27e-01h  1
 119r 4.2687074e+02 5.92e-01 6.69e-06  -3.8 1.14e+02    -  1.00e+00 1.00e+00h  1
iter    objective    inf_pr   inf_du lg(mu)  ||d||  lg(rg) alpha_du alpha_pr  ls
 120r 4.2687073e+02 5.92e-01 8.36e-03  -5.8 3.12e+00    -  1.00e+00 1.00e+00f  1
 121r 4.2405344e+02 5.92e-01 2.77e+02  -5.8 1.95e+05    -  2.07e-01 7.51e-02f  1
 122r 4.1717674e+02 5.92e-01 1.35e+02  -5.8 1.33e+05    -  1.09e-06 1.98e-01f  1
 123r 4.1717671e+02 5.92e-01 6.33e+02  -5.8 1.20e+05    -  3.06e-01 1.02e-06f  1
 124r 4.1651324e+02 5.92e-01 6.00e+02  -5.8 1.20e+05    -  1.59e-06 2.40e-02f  1
 125r 4.1651267e+02 5.92e-01 6.00e+02  -5.8 9.42e+04    -  1.29e-01 2.14e-05f  1
 126r 4.1443029e+02 5.92e-01 5.53e+02  -5.8 9.42e+04    -  7.71e-03 7.69e-02f  1
 127r 4.1443010e+02 5.92e-01 5.53e+02  -5.8 8.92e+04    -  1.52e-01 8.42e-06f  1
 128r 4.0689723e+02 5.91e-01 5.03e+02  -5.8 8.92e+04    -  6.52e-01 3.49e-01f  1
 129r 4.0689716e+02 5.91e-01 8.13e+02  -5.8 6.90e+04    -  7.92e-01 5.55e-06f  1
iter    objective    inf_pr   inf_du lg(mu)  ||d||  lg(rg) alpha_du alpha_pr  ls
 130r 3.9425010e+02 5.91e-01 2.21e-01  -5.8 6.90e+04    -  1.00e+00 1.00e+00f  1
 131r 3.9390191e+02 5.91e-01 1.18e-02  -5.8 4.31e+04    -  1.00e+00 1.00e+00h  1
 132r 3.9390191e+02 5.91e-01 2.46e+02  -5.8 1.57e-01   2.1 5.88e-01 8.19e-01f  1
 133r 3.9390191e+02 5.91e-01 8.84e+02  -5.8 1.18e+04    -  1.00e+00 5.84e-06h  1
 134r 3.9386970e+02 5.91e-01 3.35e+01  -5.8 7.32e+03    -  1.00e+00 1.00e+00f  1
 135r 3.9386970e+02 5.91e-01 3.20e-01  -5.8 7.30e-03   1.6 1.00e+00 1.00e+00f  1
 136r 3.9386970e+02 5.91e-01 7.10e-05  -5.8 4.85e-06   1.2 1.00e+00 1.00e+00h  1
 137r 3.9386970e+02 5.91e-01 5.63e+01  -8.6 3.46e-05   0.7 1.00e+00 8.22e-01f  1
 138r 3.9386970e+02 5.91e-01 5.41e+01  -8.6 2.42e-03   0.2 8.97e-01 7.99e-01f  1
 139r 3.9386970e+02 5.91e-01 2.37e+00  -8.6 7.26e-03  -0.3 9.11e-01 1.00e+00f  1
iter    objective    inf_pr   inf_du lg(mu)  ||d||  lg(rg) alpha_du alpha_pr  ls
 140r 3.9386970e+02 5.91e-01 7.65e+02  -8.6 2.18e-02  -0.7 1.00e+00 1.10e-01f  1
 141r 3.9386970e+02 5.91e-01 3.27e+02  -8.6 6.53e-02  -1.2 1.00e+00 6.80e-01f  1
 142r 3.9386969e+02 5.91e-01 3.93e-03  -8.6 1.96e-01  -1.7 1.00e+00 1.00e+00f  1
 143r 3.9386968e+02 5.91e-01 6.45e+00  -8.6 5.88e-01  -2.2 1.00e+00 4.36e-01f  1
 144r 3.9386966e+02 5.91e-01 2.91e+02  -8.6 1.76e+00  -2.7 1.00e+00 5.58e-01f  1
 145r 3.9386950e+02 5.91e-01 3.93e-03  -8.6 5.29e+00  -3.1 1.00e+00 1.00e+00f  1
 146r 3.9386949e+02 5.91e-01 1.06e+01  -8.6 1.59e+01  -3.6 1.00e+00 3.24e-02f  1
 147r 3.9386810e+02 5.91e-01 3.92e+02  -8.6 4.75e+01  -4.1 5.73e-02 1.00e+00f  1
 148r 3.9386774e+02 5.91e-01 2.60e+01  -8.6 1.42e+02  -4.6 1.00e+00 8.73e-02f  1
 149r 3.9386720e+02 5.91e-01 2.48e+01  -8.6 4.19e+02  -5.0 1.31e-01 4.47e-02f  1
iter    objective    inf_pr   inf_du lg(mu)  ||d||  lg(rg) alpha_du alpha_pr  ls
 150r 3.9383150e+02 5.91e-01 3.71e-03  -8.6 1.21e+03  -5.5 1.00e+00 1.00e+00f  1
 151r 3.9373565e+02 5.91e-01 1.61e+01  -8.6 3.14e+03  -6.0 2.60e-01 1.00e+00f  1
 152r 3.9350515e+02 5.91e-01 2.80e-02  -8.6 7.00e+03  -6.5 1.00e+00 1.00e+00f  1
 153r 3.9300028e+02 5.91e-01 4.18e+01  -8.6 1.29e+04  -6.9 3.63e-01 1.00e+00f  1
 154r 3.9266585e+02 5.91e-01 3.74e+01  -8.6 2.44e+04  -7.4 1.00e+00 2.96e-01f  1
 155r 3.9266585e+02 5.91e-01 4.65e+02  -8.6 2.75e+04  -7.9 0.00e+00 3.88e-13R 13
 156r 3.9266585e+02 5.91e-01 5.19e+02  -8.6 9.92e+04  -8.4 5.26e-01 2.76e-12f 10
 157r 3.8557018e+02 5.90e-01 6.86e+02  -8.6 7.50e+05  -8.9 1.00e+00 2.71e-01f  1
 158r 3.8557018e+02 5.90e-01 7.22e+02  -8.6 4.05e+04  -7.5 1.00e+00 2.06e-08h  1
 159r 3.8551302e+02 5.90e-01 1.07e+03  -8.6 4.16e+05  -8.0 1.00e+00 1.86e-02f  1
iter    objective    inf_pr   inf_du lg(mu)  ||d||  lg(rg) alpha_du alpha_pr  ls
 160r 3.8551302e+02 5.90e-01 9.34e+02  -8.6 6.46e+04  -8.5 8.41e-01 1.61e-07h  1
 161r 3.8415196e+02 5.90e-01 8.78e+02  -8.6 2.52e+05  -9.0 1.00e+00 4.90e-02f  1
 162r 3.8338356e+02 5.90e-01 9.21e+02  -8.6 3.68e+07  -9.4 6.12e-01 1.19e-03f  1
 163r 3.8338352e+02 5.90e-01 1.00e+03  -8.6 3.06e+05  -9.0 1.00e+00 1.48e-06f  1
 164r 3.8063683e+02 5.90e-01 7.35e+02  -8.6 8.71e+04  -8.6 1.00e+00 2.93e-01f  1
 165r 3.8063462e+02 5.90e-01 1.07e+03  -8.6 4.14e+05  -9.1 1.00e+00 6.54e-05f  1
 166r 3.7893888e+02 5.90e-01 8.98e+02  -8.6 1.06e+05  -8.6 1.00e+00 1.67e-01f  1
 167r 3.7786457e+02 5.90e-01 9.54e+02  -8.6 5.71e+05  -9.1 1.00e+00 2.72e-02f  1
 168r 3.7785360e+02 5.90e-01 1.10e+03  -8.6 1.35e+05  -8.7 1.00e+00 9.93e-04f  1
 169r 3.7296081e+02 5.90e-01 9.83e+02  -8.6 8.46e+05  -9.2 1.00e+00 1.16e-01f  1
iter    objective    inf_pr   inf_du lg(mu)  ||d||  lg(rg) alpha_du alpha_pr  ls
 170r 3.7296075e+02 5.90e-01 1.10e+03  -8.6 2.39e+05  -8.7 1.00e+00 5.00e-06f  1
 171r 3.6925750e+02 5.91e-01 2.16e+01  -8.6 6.52e+04  -8.3 1.00e+00 9.81e-01f  1
 172r 3.6913043e+02 5.91e-01 4.54e+01  -8.6 5.07e+05  -8.8 1.00e+00 9.12e-03f  1
 173r 3.6718878e+02 5.91e-01 4.78e+02  -8.6 9.94e+04  -8.4 1.00e+00 4.99e-01f  1
 174r 3.6718876e+02 5.91e-01 5.51e+02  -8.6 8.88e+06  -8.8 6.16e-01 2.73e-07f  1
 175r 3.6654940e+02 5.91e-01 7.53e+02  -8.6 1.59e+05  -8.4 1.00e+00 1.49e-01f  1
 176r 3.6654936e+02 5.91e-01 9.32e+02  -8.6 8.71e+04  -8.9 1.00e+00 3.27e-06h  1
 177r 3.6333545e+02 5.91e-01 8.69e+02  -8.6 3.05e+05  -9.4 1.00e+00 7.53e-02f  1
 178r 3.6333437e+02 5.91e-01 9.55e+02  -8.6 2.09e+06  -9.8 1.00e+00 5.35e-06f  1
 179r 3.6038111e+02 5.91e-01 8.87e+02  -8.6 3.68e+05  -9.4 1.00e+00 6.17e-02f  1
iter    objective    inf_pr   inf_du lg(mu)  ||d||  lg(rg) alpha_du alpha_pr  ls
 180r 3.6035219e+02 5.91e-01 1.04e+03  -8.6 3.75e+06  -9.9 1.00e+00 1.13e-04f  1
 181r 3.5927150e+02 5.91e-01 8.95e+02  -8.6 4.52e+05  -9.5 1.00e+00 2.06e-02f  1
 182r 3.5101773e+02 5.91e-01 9.74e+02  -8.6 9.00e+06  -9.9 1.00e+00 2.12e-02f  1
 183r 3.5101741e+02 5.91e-01 1.16e+03  -8.6 4.56e+05  -9.5 1.00e+00 6.59e-06f  1
 184r 3.4194143e+02 5.91e-01 1.03e+03  -8.6 5.87e+06 -10.0 1.00e+00 3.56e-02f  1
 185r 3.4194130e+02 5.91e-01 1.15e+03  -8.6 3.05e+05  -9.6 1.00e+00 2.99e-06h  1
 186r 3.3261842e+02 5.91e-01 1.09e+03  -8.6 1.74e+06 -10.0 1.00e+00 6.15e-02f  1
 187r 3.3260791e+02 5.91e-01 1.29e+03  -8.6 8.19e+06 -10.5 1.00e+00 1.61e-05f  1
 188r 2.8792645e+02 5.92e-01 7.76e+02  -8.6 9.97e+05 -10.1 1.00e+00 3.97e-01f  1
 189r 2.8792643e+02 5.92e-01 7.54e+02  -8.6 2.53e+06 -10.6 4.29e-01 4.92e-08h  1
iter    objective    inf_pr   inf_du lg(mu)  ||d||  lg(rg) alpha_du alpha_pr  ls
 190r 2.8768783e+02 5.92e-01 8.29e+02  -8.6 2.85e+05 -10.2 1.00e+00 2.53e-03f  1
In iteration 190, 1 Slack too small, adjusting variable bound
 191r 1.1927814e+02 1.86e+00 8.03e+02  -8.6 1.59e+07 -10.6 3.93e-04 8.60e-02f  1
In iteration 191, 1 Slack too small, adjusting variable bound
 192r 9.7863602e+01 7.46e-01 7.93e+02  -8.6 8.01e+06  -9.3 3.26e-02 4.21e-02f  1
In iteration 192, 1 Slack too small, adjusting variable bound
 193r 9.5832251e+01 6.65e-01 7.70e+02  -8.6 3.92e+05  -8.9 7.05e-10 8.84e-02h  1
 194r 9.5832251e+01 6.65e-01 1.39e+03  -8.6 7.88e+01   3.0 0.00e+00 4.76e-10R  2
In iteration 194, 1 Slack too small, adjusting variable bound
 195r 9.5832251e+01 6.65e-01 1.39e+03  -8.6 4.59e-01   3.4 2.01e-02 5.55e-09f  1
In iteration 195, 1 Slack too small, adjusting variable bound
 196r 9.5832251e+01 6.61e-01 1.43e+03  -8.6 1.18e+00   2.9 5.02e-02 8.28e-03f  1
In iteration 196, 1 Slack too small, adjusting variable bound
 197r 9.5832251e+01 6.61e-01 1.50e+03  -8.6 2.81e-01   3.3 5.75e-03 1.56e-13h 10
In iteration 197, 1 Slack too small, adjusting variable bound
 198r 9.5832251e+01 6.55e-01 1.45e+03  -8.6 1.40e+00   2.9 1.61e-04 4.17e-03f  1
In iteration 198, 1 Slack too small, adjusting variable bound
 199r 9.5832251e+01 6.53e-01 1.37e+03  -8.6 2.94e-01   3.3 2.55e-03 7.11e-03f  1
In iteration 199, 1 Slack too small, adjusting variable bound
iter    objective    inf_pr   inf_du lg(mu)  ||d||  lg(rg) alpha_du alpha_pr  ls
 200r 9.5832251e+01 5.92e-01 1.27e+03  -8.6 1.97e+00   2.8 8.99e-04 6.67e-02f  1
In iteration 200, 1 Slack too small, adjusting variable bound
 201r 9.5832251e+01 5.92e-01 1.25e+03  -8.6 5.22e-01   3.2 4.68e-03 1.11e-02f  1
In iteration 201, 1 Slack too small, adjusting variable bound
 202r 9.5832251e+01 6.38e-01 1.19e+03  -8.6 8.06e+00   2.8 1.09e-02 4.59e-02H  1
In iteration 202, 1 Slack too small, adjusting variable bound
 203r 9.5832251e+01 6.10e-01 1.12e+03  -8.6 4.68e-01   3.2 7.97e-03 5.47e-02f  1
 204r 9.5832251e+01 5.92e-01 3.03e+03  -8.6 1.40e-01   3.6 1.63e-03 1.98e-01f  1
 205r 9.5832251e+01 5.92e-01 2.82e+03  -8.6 7.41e-01   3.1 2.81e-02 6.73e-02f  1
 206r 9.5832251e+01 5.92e-01 3.71e+03  -8.6 2.05e-01   3.6 6.08e-03 3.50e-01f  1
 207r 9.5832251e+01 5.92e-01 3.31e+03  -8.6 1.41e+00   3.1 1.87e-02 1.11e-01F  1
 208r 9.5832251e+01 5.92e-01 3.54e+03  -8.6 3.39e-01   3.5 7.01e-03 6.96e-02F  1
 209r 9.5832251e+01 5.92e-01 3.38e+03  -8.6 3.04e+00   3.0 2.27e-02 4.44e-02f  2
iter    objective    inf_pr   inf_du lg(mu)  ||d||  lg(rg) alpha_du alpha_pr  ls
 210r 9.5832251e+01 5.92e-01 3.07e+03  -8.6 5.09e-01   3.5 4.28e-02 9.21e-02f  3
 211r 9.5832251e+01 5.92e-01 3.65e+03  -8.6 1.42e-01   3.9 1.78e-02 4.60e-01F  1
 212r 9.5832251e+01 5.92e-01 7.49e+03  -8.6 4.76e-01   3.4 9.90e-03 2.27e-01F  1
 213r 9.5832251e+01 5.92e-01 7.19e+03  -8.6 1.64e-01   2.9 1.04e-01 4.01e-02f  1
 214r 9.5832251e+01 5.92e-01 6.02e+03  -8.6 2.27e-02   2.5 2.10e-02 1.63e-01f  1
 215r 9.5832251e+01 5.92e-01 1.46e+04  -8.6 5.74e-02   2.0 2.54e-02 3.28e-01F  1
 216r 9.5832251e+01 5.92e-01 1.39e+04  -8.6 9.18e-02   1.5 9.68e-02 4.61e-02f  1
 217r 9.5832251e+01 5.92e-01 1.18e+04  -8.6 1.09e-01   1.0 4.43e-02 1.42e-01f  1
 218r 9.5832251e+01 5.92e-01 1.01e+04  -8.6 1.63e-01   0.6 5.96e-02 1.46e-01f  1
 219r 9.5832251e+01 5.92e-01 9.75e+03  -8.6 3.97e-01   0.1 6.48e-03 3.79e-02f  1
iter    objective    inf_pr   inf_du lg(mu)  ||d||  lg(rg) alpha_du alpha_pr  ls
 220r 9.5832251e+01 5.92e-01 6.28e+03  -8.6 7.16e-02  -0.4 5.31e-03 4.50e-01F  1
 221r 9.5832251e+01 5.92e-01 6.18e+03  -8.6 1.17e-01  -0.9 4.40e-02 1.50e-02h  1
 222r 9.5832251e+01 5.92e-01 5.38e+03  -8.6 1.30e-01  -1.4 5.91e-02 1.73e-01f  1
 223r 9.5832252e+01 5.92e-01 6.19e+03  -8.6 3.91e-01  -1.8 5.02e-02 1.71e-01f  1
 224r 9.5832252e+01 5.92e-01 1.07e+04  -8.6 5.62e-01   3.1 8.08e-08 3.93e-01f  1
 225r 9.5832252e+01 5.92e-01 9.93e+03  -8.6 4.75e-03   2.6 5.95e-02 6.95e-02f  1
 226r 9.5832252e+01 5.92e-01 6.16e+03  -8.6 5.89e-03   2.2 3.02e-01 3.84e-01f  1
 227r 9.5832252e+01 5.92e-01 5.97e+03  -8.6 1.23e-02   1.7 9.82e-02 2.99e-02f  1
 228r 9.5832252e+01 5.92e-01 1.93e+03  -8.6 2.91e-03   1.2 2.92e-01 6.85e-01f  1
 229r 9.5832252e+01 5.92e-01 1.37e+03  -8.6 1.22e-02   0.7 8.67e-01 2.87e-01f  1
iter    objective    inf_pr   inf_du lg(mu)  ||d||  lg(rg) alpha_du alpha_pr  ls
 230r 9.5832252e+01 5.92e-01 7.94e+01  -8.6 3.63e-02   0.2 8.86e-02 9.87e-01f  1
 231r 9.5832252e+01 5.92e-01 3.83e-01  -8.6 1.10e-01  -0.2 9.99e-01 9.91e-01f  1
 232r 9.5832252e+01 5.92e-01 6.45e-02  -8.6 8.06e-05   2.9 1.00e+00 1.00e+00f  1
 233r 9.5832252e+01 5.92e-01 5.91e-01  -8.6 2.42e-04   2.4 7.33e-01 1.00e+00f  1
 234r 9.5832252e+01 5.92e-01 6.45e-02  -8.6 9.07e-05   2.9 1.00e+00 1.00e+00f  1
 235r 9.5832252e+01 5.92e-01 1.77e+00  -8.6 2.72e-04   2.4 7.00e-02 1.58e-01f  1
 236r 9.5832252e+01 5.92e-01 6.45e-02  -8.6 8.16e-04   1.9 1.00e+00 1.00e+00f  1
 237r 9.5832252e+01 5.92e-01 4.62e-01  -8.6 2.45e-03   1.4 1.00e+00 5.02e-01f  1
 238r 9.5832252e+01 5.92e-01 6.45e-02  -8.6 7.35e-03   0.9 1.00e+00 1.00e+00f  1
 239r 9.5832252e+01 5.92e-01 6.45e-02  -8.6 2.20e-02   0.5 1.00e+00 1.00e+00f  1
iter    objective    inf_pr   inf_du lg(mu)  ||d||  lg(rg) alpha_du alpha_pr  ls
 240r 9.5832252e+01 5.92e-01 6.46e-02  -8.6 6.62e-02  -0.0 5.66e-01 1.00e+00f  1
 241r 9.5832252e+01 5.92e-01 9.82e-02  -8.6 1.99e-01  -0.5 1.00e+00 1.00e+00f  1
 242r 9.5832252e+01 5.92e-01 8.59e-01  -8.6 6.05e-01  -1.0 3.86e-01 1.00e+00f  1
 243r 9.5832252e+01 5.92e-01 7.19e+00  -8.6 1.88e+00  -1.4 5.72e-01 1.00e+00f  1
 244r 9.5832252e+01 5.92e-01 5.59e+01  -8.6 6.32e+00  -1.9 3.70e-01 1.00e+00f  1
 245r 9.5832252e+01 5.92e-01 5.27e+02  -8.6 2.93e+01  -2.4 3.02e-01 1.00e+00f  1
 246r 9.5832253e+01 5.92e-01 4.53e+02  -8.6 1.62e+01  -2.0 1.00e+00 3.17e-01f  1
 247r 9.5832253e+01 5.92e-01 4.59e+02  -8.6 3.63e+00  -2.4 0.00e+00 6.70e-12R 10
 248r 9.5832253e+01 5.92e-01 4.59e+02  -8.6 5.16e+00  -2.9 1.00e+00 2.33e-12f 11
 249r 9.5832253e+01 5.92e-01 3.11e+02  -8.6 1.44e+01  -3.4 3.33e-01 5.53e-01f  1
iter    objective    inf_pr   inf_du lg(mu)  ||d||  lg(rg) alpha_du alpha_pr  ls
 250r 9.5832253e+01 5.92e-01 3.05e+02  -8.6 4.33e+01  -3.9 2.18e-02 7.00e-04f  1
 251r 9.5832253e+01 5.92e-01 3.04e+02  -8.6 1.30e+02  -4.4 1.03e-03 1.79e-05f  1
 252r 9.5832253e+01 5.92e-01 3.02e+02  -8.6 3.79e+02  -4.8 2.03e-01 1.77e-08h  2
 253r 9.5832252e+01 5.92e-01 7.00e+02  -8.6 2.41e+02  -5.3 8.24e-02 6.78e-03f  1
 254r 9.5832252e+01 5.92e-01 9.96e+02  -8.6 7.24e+02  -5.8 4.55e-02 1.34e-02f  1
 255r 9.5832253e+01 5.92e-01 9.91e+02  -8.6 2.87e+03  -6.3 6.72e-03 1.14e-03f  1
 256r 9.5832256e+01 5.92e-01 9.94e+02  -8.6 4.97e+03  -6.7 3.03e-03 7.02e-04f  1
 257r 9.5832271e+01 5.92e-01 9.92e+02  -8.6 1.61e+04  -7.2 2.13e-02 2.26e-03f  1
 258r 9.5832269e+01 5.92e-01 9.92e+02  -8.6 6.08e+04  -7.7 1.05e-03 4.70e-05f  1
 259r 9.5832155e+01 5.92e-01 9.91e+02  -8.6 7.20e+04  -8.2 8.23e-04 3.00e-04f  1
iter    objective    inf_pr   inf_du lg(mu)  ||d||  lg(rg) alpha_du alpha_pr  ls
 260r 9.5831374e+01 5.92e-01 9.91e+02  -8.6 1.53e+05  -8.6 5.07e-04 2.74e-04f  1
 261r 9.5830130e+01 5.92e-01 9.91e+02  -8.6 9.43e+05  -9.1 8.43e-04 5.03e-05f  1
 262r 9.5829068e+01 5.92e-01 2.00e+03  -8.6 1.52e+05  -8.7 7.20e-01 4.35e-04f  1
 263r 9.5824891e+01 5.92e-01 1.94e+03  -8.6 5.13e+05  -9.2 4.20e-01 3.05e-04f  1
 264r 9.5818859e+01 5.92e-01 2.00e+03  -8.6 1.54e+06  -9.7 6.48e-02 1.08e-04f  1
 265r 9.5812065e+01 5.92e-01 1.99e+03  -8.6 3.38e+05  -9.2 2.57e-01 1.40e-03f  1
 266r 9.5707689e+01 5.92e-01 1.98e+03  -8.6 1.45e+06  -9.7 5.32e-10 5.30e-03f  1
 267r 9.5710499e+01 5.92e-01 1.98e+03  -8.6 3.81e+05  -9.3 3.41e-01 1.30e-03f  1
 268r 9.5758333e+01 5.92e-01 1.94e+03  -8.6 1.32e+05  -8.9 3.28e-02 2.18e-02f  1
 269r 9.5798714e+01 5.92e-01 1.93e+03  -8.6 4.35e+05  -9.3 3.79e-02 5.12e-03f  1
iter    objective    inf_pr   inf_du lg(mu)  ||d||  lg(rg) alpha_du alpha_pr  ls
 270r 9.5798714e+01 5.92e-01 1.93e+03  -8.6 4.35e+00  -1.5 1.05e-05 5.35e-04f  1
 271r 9.5798714e+01 5.92e-01 2.00e+03  -8.6 1.48e+01  -2.0 2.46e-04 3.25e-03f  1
 272r 9.5798714e+01 5.92e-01 1.92e+03  -8.6 1.08e+02  -2.4 3.88e-03 5.24e-04f  1
 273r 9.5798715e+01 5.92e-01 3.37e+03  -8.6 3.67e+00  -2.9 1.18e-03 4.93e-02f  1
 274r 9.5798715e+01 5.92e-01 3.01e+03  -8.6 4.58e+02  -3.4 2.34e-02 1.37e-04f  1
 275r 9.5798732e+01 5.92e-01 2.65e+02  -8.6 5.50e+00  -3.9 9.54e-01 9.13e-01f  1
 276r 9.5798732e+01 5.92e-01 5.05e+02  -8.6 1.69e+01  -4.3 7.94e-01 1.12e-05h  1
 277r 9.5798746e+01 5.92e-01 7.52e+02  -8.6 5.07e+01  -4.8 6.93e-01 7.43e-02f  1
 278r 9.5798747e+01 5.92e-01 1.04e+03  -8.6 1.51e+02  -5.3 7.81e-01 2.82e-03h  1
 279r 9.5799014e+01 5.92e-01 1.07e+03  -8.6 4.27e+02  -5.8 1.00e+00 1.99e-01f  1
iter    objective    inf_pr   inf_du lg(mu)  ||d||  lg(rg) alpha_du alpha_pr  ls
 280r 9.5799047e+01 5.92e-01 1.08e+03  -8.6 9.08e+02  -6.3 7.54e-01 9.25e-03f  1
 281r 9.5799876e+01 5.92e-01 9.98e+02  -8.6 2.69e+03  -6.7 1.00e+00 7.76e-02f  1
 282r 9.5800848e+01 5.92e-01 1.39e+03  -8.6 5.63e+03  -7.2 1.00e+00 2.63e-02f  1
 283r 9.5802721e+01 5.92e-01 1.27e+03  -8.6 8.35e+03  -7.7 1.00e+00 1.51e-02f  1
 284r 9.5803459e+01 5.92e-01 1.42e+03  -8.6 2.52e+04  -8.2 1.00e+00 1.88e-03f  1
 285r 9.5815205e+01 5.92e-01 1.44e+03  -8.6 7.69e+04  -8.6 1.00e+00 8.29e-03f  1
 286r 9.5916037e+01 5.92e-01 1.97e+03  -8.6 2.38e+05  -9.1 4.41e-01 6.71e-03f  1
 287r 1.0098864e+02 5.92e-01 1.50e+03  -8.6 8.18e+05  -9.6 1.28e-09 9.13e-02f  1
 288r 1.0098864e+02 5.92e-01 1.50e+03  -8.6 9.38e+06 -10.1 2.43e-02 4.76e-09f  1
 289r 1.0151429e+02 5.92e-01 1.49e+03  -8.6 1.66e+06  -9.6 2.75e-10 6.82e-03f  1
iter    objective    inf_pr   inf_du lg(mu)  ||d||  lg(rg) alpha_du alpha_pr  ls
 290r 1.0151429e+02 5.92e-01 1.92e+03  -8.6 2.55e+02  -1.8 1.43e-06 3.99e-05h  1
 291r 1.0151429e+02 5.92e-01 1.88e+03  -8.6 2.62e+01  -2.3 5.53e-02 2.46e-02f  1
 292r 1.0151429e+02 5.92e-01 1.79e+03  -8.6 9.77e+00  -2.8 2.46e-02 6.53e-02h  1
 293r 1.0151429e+02 5.92e-01 1.76e+03  -8.6 3.83e+01  -3.2 9.46e-02 1.64e-02f  1
 294r 1.0151431e+02 5.92e-01 1.22e+03  -8.6 3.09e+00  -3.7 1.00e+00 3.09e-01f  1
 295r 1.0151437e+02 5.92e-01 6.23e+02  -8.6 9.64e+00  -4.2 1.00e+00 4.89e-01f  1
 296r 1.0151451e+02 5.92e-01 3.91e+02  -8.6 1.78e+01  -4.7 1.00e+00 3.72e-01f  1
 297r 1.0151474e+02 5.92e-01 5.73e+02  -8.6 2.44e+01  -5.1 1.00e+00 2.03e-01h  1
 298r 1.0151805e+02 5.92e-01 3.23e-01  -8.6 7.32e+01  -5.6 1.00e+00 9.99e-01f  1
 299r 1.0152802e+02 5.92e-01 1.75e-04  -8.6 2.20e+02  -6.1 1.00e+00 1.00e+00f  1
iter    objective    inf_pr   inf_du lg(mu)  ||d||  lg(rg) alpha_du alpha_pr  ls
 300r 1.0153301e+02 5.92e-01 1.06e+00  -8.6 6.59e+02  -6.6 1.00e+00 1.66e-01f  1
 301r 1.0162364e+02 5.92e-01 4.29e-03  -8.6 1.98e+03  -7.1 1.00e+00 1.00e+00f  1
 302r 1.0189900e+02 5.92e-01 8.67e-02  -8.6 5.95e+03  -7.5 1.00e+00 1.00e+00f  1
 303r 1.0200130e+02 5.92e-01 3.01e-01  -8.6 2.23e+03  -7.1 1.00e+00 9.96e-01f  1
 304r 1.0203899e+02 5.92e-01 1.66e-01  -8.6 8.38e+02  -6.7 1.00e+00 1.00e+00f  1
 305r 1.0205285e+02 5.92e-01 4.39e-02  -8.6 3.14e+02  -6.3 1.00e+00 1.00e+00f  1
 306r 1.0206519e+02 5.92e-01 6.20e+02  -8.6 1.18e+03  -6.7 1.00e+00 3.83e-01f  1
 307r 1.0207904e+02 5.92e-01 1.66e-01  -8.6 3.54e+02  -6.3 1.00e+00 1.00e+00f  1
 308r 1.0211774e+02 5.92e-01 3.01e+00  -8.6 1.12e+03  -6.8 1.00e+00 1.00e+00f  1
 309r 1.0213639e+02 5.92e-01 1.39e+02  -8.6 3.19e+03  -7.3 1.00e+00 1.53e-01f  1
iter    objective    inf_pr   inf_du lg(mu)  ||d||  lg(rg) alpha_du alpha_pr  ls
 310r 1.0248809e+02 5.92e-01 1.24e-01  -8.6 9.60e+03  -7.7 1.00e+00 1.00e+00f  1
 311r 1.0361241e+02 5.92e-01 1.02e+00  -8.6 2.92e+04  -8.2 1.00e+00 1.00e+00f  1
 312r 1.0682072e+02 5.92e-01 1.46e+01  -8.6 9.15e+04  -8.7 1.00e+00 8.16e-01f  1
 313r 1.0682072e+02 5.92e-01 1.46e+01  -8.6 3.29e+05  -9.2 0.00e+00 3.50e-14R 18
 314r 1.0682072e+02 5.92e-01 1.08e+02  -8.6 1.63e+06  -9.6 5.95e-02 2.65e-12f 11
 315r 1.0942499e+02 5.92e-01 3.87e+01  -8.6 4.97e+05  -9.2 3.56e-10 9.73e-02f  1
 316r 1.0942499e+02 5.92e-01 3.87e+01  -8.6 2.56e+06    -  0.00e+00 2.70e-15R 17
 317r 1.0942499e+02 5.92e-01 9.01e+02  -8.6 2.56e+06    -  6.05e-01 1.73e-13f 11
 318r 1.0922959e+02 5.92e-01 1.49e+03  -8.6 1.86e+06    -  1.00e+00 1.66e-02f  1
 319r 1.0922959e+02 5.92e-01 1.27e+03  -8.6 3.21e+05    -  1.00e+00 1.24e-08h  1
iter    objective    inf_pr   inf_du lg(mu)  ||d||  lg(rg) alpha_du alpha_pr  ls
 320r 5.5178301e+01 5.97e-01 6.70e+01  -8.6 3.20e+05    -  1.00e+00 1.00e+00F  1
 321r 5.6498417e+01 5.96e-01 7.70e+00  -8.6 1.52e+04    -  1.00e+00 9.61e-01h  1
 322r 5.6564478e+01 5.96e-01 7.73e-03  -8.6 7.07e+02    -  1.00e+00 1.00e+00h  1

Number of Iterations....: 322

                                   (scaled)                 (unscaled)
Objective...............:   5.6564494136554501e+01    5.6564494136554501e+01
Dual infeasibility......:   8.6831630142865802e-04    8.6831630142865802e-04
Constraint violation....:   5.9628216891361396e-01    5.9628216891361396e-01
Complementarity.........:   3.8699347270495000e-09    3.8699347270495000e-09
Overall NLP error.......:   5.9628216891361396e-01    5.9628216891361396e-01


Number of objective function evaluations             = 759
Number of objective gradient evaluations             = 67
Number of equality constraint evaluations            = 764
Number of inequality constraint evaluations          = 0
Number of equality constraint Jacobian evaluations   = 342
Number of inequality constraint Jacobian evaluations = 0
Number of Lagrangian Hessian evaluations             = 323
Total CPU secs in IPOPT (w/o function evaluations)   =      0.537
Total CPU secs in NLP function evaluations           =      8.640

EXIT: Converged to a point of local infeasibility. Problem may be infeasible.
